/* IPET system */
max:17 e9_13_main+ e9_12_main+ 8 e7_11_main+ 8 e8_11_main+ 11 e6_10_main+ 11 e12_10_main+ 7 e5_9_main+ 7 e13_9_main+ 8 e4_8_main+ 7 e4_7_main+ 5 e3_6_main+ 4 e3_5_main+ 10 e2_4_main+ 5 e2_3_main+ 7 e1_2_main+ 7 e11_2_main+ 16 e0_1_main;
x0_main = 1;	/* program entry constraint*/
x14_main =e10_14_main;	/* structural input constraint*/
x13_main =e13_9_main;	/* structural output constraint*/
x13_main =e9_13_main;	/* structural input constraint*/
x12_main =e12_10_main;	/* structural output constraint*/
x12_main =e9_12_main;	/* structural input constraint*/
x11_main =e11_2_main;	/* structural output constraint*/
x11_main =e7_11_main+ e8_11_main;	/* structural input constraint*/
x10_main =e10_14_main;	/* structural output constraint*/
x10_main =e6_10_main+ e12_10_main;	/* structural input constraint*/
x9_main =e9_13_main+ e9_12_main;	/* structural output constraint*/
x9_main =e5_9_main+ e13_9_main;	/* structural input constraint*/
x8_main =e8_11_main;	/* structural output constraint*/
x8_main =e4_8_main;	/* structural input constraint*/
x7_main =e7_11_main;	/* structural output constraint*/
x7_main =e4_7_main;	/* structural input constraint*/
x6_main =e6_10_main;	/* structural output constraint*/
x6_main =e3_6_main;	/* structural input constraint*/
x5_main =e5_9_main;	/* structural output constraint*/
x5_main =e3_5_main;	/* structural input constraint*/
x4_main =e4_8_main+ e4_7_main;	/* structural output constraint*/
x4_main =e2_4_main;	/* structural input constraint*/
x3_main =e3_6_main+ e3_5_main;	/* structural output constraint*/
x3_main =e2_3_main;	/* structural input constraint*/
x2_main =e2_4_main+ e2_3_main;	/* structural output constraint*/
x2_main =e1_2_main+ e11_2_main;	/* structural input constraint*/
x1_main =e1_2_main;	/* structural output constraint*/
x1_main =e0_1_main;	/* structural input constraint*/
x0_main =e0_1_main;	/* structural output constraint*/
int x7_main;
int x10_main;
int e4_8_main;
int x1_main;
int e1_2_main;
int x8_main;
int e2_3_main;
int e2_4_main;
int x4_main;
int e5_9_main;
int e3_6_main;
int e7_11_main;
int e0_1_main;
int e3_5_main;
int x3_main;
int e6_10_main;
int x9_main;
int x11_main;
int e9_13_main;
int x2_main;
int x5_main;
int e9_12_main;
int x0_main;
int e10_14_main;
int x6_main;
int e4_7_main;
int e8_11_main;
int x14_main;
int x13_main;
int e13_9_main;
int e11_2_main;
int x12_main;
int e12_10_main;
